proyfinal/src/viki/013/andrea/andrea-localstore/experimentInOfficeAgust.take6/worker_9/68ad5435-4724-4519-9a5b-e8fc5950ff9d.als.cnf.out
Reading from standard input... Use '--help' for help.
============================[ Problem Statistics ]=============================
|                                                                             |
|  Number of variables:         87638                                         |
|  Number of clauses:          161767                                         |
|  Parse time:                   0.03 s                                       |
|                                                                             |
============================[ Search Statistics ]==============================
| Conflicts |          ORIGINAL         |          LEARNT          | Progress |
|           |    Vars  Clauses Literals |    Limit  Clauses Lit/Cl |          |
===============================================================================
|       100 |   62368   105148   262682 |    38554      100     34 | 28.835 % |
|       250 |   62338   105028   262330 |    42409      240     90 | 28.869 % |
|       475 |   51759   104984   262240 |    46650      463     69 | 40.940 % |
|       812 |   51759    74335   186386 |    51315      777     66 | 40.940 % |
|      1318 |   51680    73971   185506 |    56447     1276     55 | 41.030 % |
|      2077 |   51530    73904   185349 |    62092     2029     50 | 41.201 % |
|      3216 |   51530    73372   184058 |    68301     3158     58 | 41.201 % |
|      4924 |   51028    71307   179158 |    75131     4808     57 | 41.774 % |
|      7486 |   50865    70636   177516 |    82644     6471     54 | 41.960 % |
|     11330 |   50620    69596   175072 |    90908     9504     51 | 42.240 % |
===============================================================================
restarts              : 63
conflicts             : 16924          (8977 /sec)
decisions             : 48184          (0.00 % random) (25558 /sec)
propagations          : 20766370       (11015076 /sec)
conflict literals     : 761990         (47.13 % deleted)
Memory used           : 29.71 MB
CPU time              : 1.88527 s

UNSATISFIABLE
